35568
001011110010110001011001100100
7 19 2 24 2 12 2 27 24 24 4 10 13 13 19 7 13 13 6 27 27 24 5 27 23 12 27 19 4 2 19 19 19 2 27 19 20 13 27 24 7 20 6 4 20 19 13 2 19 10 24 27 2 6 23 12 7 23 12 7 4 10 7 20 13 12 23 17 6 7 7 12 4 20 23 10 20 23 13 27 10 17 10 7 4 23 6 2 27 7 12 4 7 12 5 13 6 6 17 19 17 24 12 7 4 24 4 24 27 13 19 4 27 6 12 20 19 7 17 13 20 6 17 6 4 2 10 12 19 17 27 24 12 20 23 19 13 13 19 17 12 24 6 12 17 5 24 2 6 7 2 17 23 17 13 6 2 2 13 13 13 17 10 24 5 27 5 4 13 2 5 13 19 23 4 2 24 5 4 10 23 2 17 6 12 19 19 23 17 5 24 19 6 4 7 12 7 2 10 19 